(set-info :smt-lib-version 2.6)
(set-logic QF_UFLRA)
(set-info :source |
MathSat group

|)
(set-info :category "random")
(set-info :status sat)
(declare-fun x0 () Real)
(declare-fun x1 () Real)
(declare-fun x2 () Real)
(declare-fun x3 () Real)
(declare-fun x4 () Real)
(declare-fun x5 () Real)
(declare-fun x6 () Real)
(declare-fun x7 () Real)
(declare-fun x8 () Real)
(declare-fun x9 () Real)
(declare-fun x10 () Real)
(declare-fun x11 () Real)
(declare-fun x12 () Real)
(declare-fun x13 () Real)
(declare-fun x14 () Real)
(declare-fun x15 () Real)
(declare-fun x16 () Real)
(declare-fun x17 () Real)
(declare-fun x18 () Real)
(declare-fun x19 () Real)
(declare-fun x20 () Real)
(declare-fun x21 () Real)
(declare-fun x22 () Real)
(declare-fun x23 () Real)
(declare-fun x24 () Real)
(declare-fun x25 () Real)
(declare-fun x26 () Real)
(declare-fun x27 () Real)
(declare-fun x28 () Real)
(declare-fun x29 () Real)
(declare-fun f0_1 (Real) Real)
(declare-fun f0_2 (Real Real) Real)
(declare-fun f0_3 (Real Real Real) Real)
(declare-fun f0_4 (Real Real Real Real) Real)
(declare-fun P0 () Bool)
(declare-fun P1 () Bool)
(declare-fun P2 () Bool)
(declare-fun P3 () Bool)
(declare-fun P4 () Bool)
(declare-fun P5 () Bool)
(declare-fun P6 () Bool)
(declare-fun P7 () Bool)
(declare-fun P8 () Bool)
(declare-fun P9 () Bool)
(declare-fun P10 () Bool)
(declare-fun P11 () Bool)
(declare-fun P12 () Bool)
(declare-fun P13 () Bool)
(declare-fun P14 () Bool)
(declare-fun P15 () Bool)
(declare-fun P16 () Bool)
(declare-fun P17 () Bool)
(declare-fun P18 () Bool)
(declare-fun P19 () Bool)
(declare-fun P20 () Bool)
(declare-fun P21 () Bool)
(declare-fun P22 () Bool)
(declare-fun P23 () Bool)
(declare-fun P24 () Bool)
(declare-fun P25 () Bool)
(declare-fun P26 () Bool)
(declare-fun P27 () Bool)
(declare-fun P28 () Bool)
(declare-fun P29 () Bool)
(assert (let ((?v_34 (* 35 x27))) (let ((?v_53 (<= (- (+ (* 10 x10) ?v_34) (* 33 x9)) 30)) (?v_84 (* 36 x6))) (let ((?v_138 (<= (- (- ?v_84 (* 11 x12)) (* 35 x29)) 7)) (?v_64 (* 36 x26)) (?v_61 (distinct (- (+ (* 27 x23) (* 5 x20)) (* 37 x8)) 18)) (?v_32 (distinct x8 (f0_1 x20))) (?v_21 (f0_1 x0))) (let ((?v_43 (= ?v_21 (f0_2 x9 x11))) (?v_62 (= (f0_1 x2) x19)) (?v_37 (distinct (f0_2 x29 x7) x14)) (?v_48 (= x3 x23)) (?v_63 (f0_1 x26))) (let ((?v_79 (distinct ?v_63 (f0_1 x6))) (?v_72 (f0_1 x13))) (let ((?v_144 (distinct (f0_2 x8 x22) ?v_72)) (?v_11 (= x29 (f0_1 x27))) (?v_23 (= (f0_1 x15) (f0_2 x18 x28))) (?v_6 (f0_1 x5))) (let ((?v_40 (distinct (f0_2 x23 x12) ?v_6)) (?v_25 (= (f0_2 x25 x26) x9)) (?v_3 (f0_1 x1))) (let ((?v_22 (distinct (f0_1 x24) ?v_3)) (?v_9 (f0_1 x7))) (let ((?v_38 (distinct ?v_9 x28)) (?v_66 (= (f0_2 x27 x26) x23)) (?v_10 (= ?v_3 x23)) (?v_58 (distinct x13 (f0_2 x4 x27))) (?v_15 (distinct x26 (f0_1 x23))) (?v_33 (= (f0_2 x20 x13) (f0_2 x29 x25))) (?v_27 (distinct ?v_63 ?v_6)) (?v_20 (f0_1 x10))) (let ((?v_127 (distinct ?v_20 ?v_21)) (?v_125 (= ?v_72 (f0_1 x19))) (?v_93 (distinct (f0_2 x22 x10) ?v_21)) (?v_70 (distinct (f0_2 x7 x25) (f0_2 x10 x29))) (?v_69 (distinct (f0_2 x6 x1) (f0_1 x4))) (?v_55 (= x17 (f0_2 x7 x28))) (?v_118 (distinct (f0_1 x3) ?v_9)) (?v_26 (distinct (f0_2 x14 x17) x22)) (?v_49 (= x17 ?v_20)) (?v_4 (= x8 (f0_2 x20 x6))) (?v_89 (= (f0_2 x10 x21) (f0_2 x3 x19))) (?v_5 (not P0))) (let ((?v_68 (not ?v_4)) (?v_77 (not P8)) (?v_0 (not P27)) (?v_1 (not ?v_37)) (?v_96 (not P6)) (?v_122 (not P17)) (?v_12 (not P29)) (?v_51 (not ?v_40)) (?v_99 (not ?v_38)) (?v_59 (not P7)) (?v_50 (not P12)) (?v_97 (not ?v_11)) (?v_16 (not P21)) (?v_42 (not P4)) (?v_56 (not P2)) (?v_60 (not ?v_33)) (?v_129 (not P13)) (?v_75 (not ?v_127)) (?v_76 (not P10)) (?v_54 (not ?v_10)) (?v_139 (not ?v_22)) (?v_86 (not P11)) (?v_28 (not ?v_32)) (?v_36 (not ?v_27)) (?v_101 (not ?v_89)) (?v_52 (not ?v_62)) (?v_74 (not P5)) (?v_108 (not P20)) (?v_158 (not P14)) (?v_112 (not ?v_43)) (?v_105 (not P22)) (?v_150 (not ?v_125)) (?v_103 (not ?v_48)) (?v_107 (not ?v_53)) (?v_154 (not ?v_25)) (?v_78 (not P15)) (?v_109 (not P25)) (?v_73 (not ?v_61)) (?v_91 (not ?v_55)) (?v_90 (not P3)) (?v_94 (not ?v_70)) (?v_137 (not P24)) (?v_83 (not ?v_144)) (?v_134 (not P28)) (?v_148 (not ?v_23)) (?v_147 (not ?v_79)) (?v_88 (not ?v_138)) (?v_114 (not P1)) (?v_151 (not ?v_93)) (?v_142 (not P23)) (?v_111 (not ?v_26)) (?v_113 (not P26)) (?v_133 (not ?v_58)) (?v_143 (not ?v_69)) (?v_128 (not P19)) (?v_130 (not ?v_15)) (?v_117 (not P18)) (?v_152 (not ?v_118)) (?v_149 (not P16)) (?v_155 (not P9))) (let ((?v_160 (or ?v_28 ?v_61)) (?v_153 (not ?v_66)) (?v_45 (<= (+ (- 0 (* 18 x10)) (* 27 x11)) 28))) (let ((?v_31 (not ?v_45)) (?v_30 (< (+ (* 23 x15) (* 23 x18) (* 19 x7)) 13))) (let ((?v_92 (not ?v_30)) (?v_41 (or P21 ?v_31)) (?v_131 (distinct (+ (* 36 x15) (* 16 x8)) 30)) (?v_100 (< (- (+ (* 20 x29) (* 24 x2)) 0) 24))) (let ((?v_87 (not ?v_100)) (?v_156 (not ?v_131)) (?v_65 (< (+ (* (- 40) x0) (* 3 x28) (* 27 x7)) (- 10))) (?v_24 (< (- (- (* 12 x10) (* 15 x27)) ?v_34) (- 21))) (?v_47 (<= (- (+ (* 30 x1) (* 2 x28)) (* 27 x26)) (- 7)))) (let ((?v_2 (not ?v_47)) (?v_57 (= (+ (* (- 42) x8) (* 37 x1) (* 26 x6)) (- 24))) (?v_17 (distinct (+ (* 35 x28) (* 35 x4) (* 39 x8)) (- 11))) (?v_39 (<= (- (- (* (- 18) x14) (* 28 x2)) (* 11 x20)) (- 44))) (?v_13 (distinct (- (- (* (- 4) x10) (* 36 x4)) (* 41 x8)) (- 38))) (?v_102 (distinct (- (- (* (- 26) x22) (* 17 x20)) (* 10 x27)) 3)) (?v_19 (<= (- (+ (* (- 41) x21) (* 2 x3)) (* 39 x15)) 32)) (?v_46 (<= (+ (- (* (- 10) x18) 0) (* 38 x15)) 31)) (?v_14 (distinct (+ (- (* (- 19) x8) ?v_64) (* 12 x13)) 41))) (let ((?v_7 (not ?v_14)) (?v_8 (< (- (- (* 31 x29) ?v_84) (* 26 x12)) (- 37)))) (let ((?v_95 (not ?v_8)) (?v_82 (<= (+ (* 18 x0) (* 2 x16) (* 37 x29)) (- 40)))) (let ((?v_81 (not ?v_82)) (?v_18 (< (- (+ (* (- 26) x10) (* 10 x15)) (* 14 x21)) 13))) (let ((?v_29 (not ?v_18)) (?v_35 (<= (- (+ (* (- 36) x13) (* 39 x13)) (* 22 x26)) 10)) (?v_44 (not ?v_24)) (?v_135 (not ?v_39)) (?v_126 (not ?v_46)) (?v_140 (< (+ (* (- 34) x28) (* 19 x1)) 3))) (let ((?v_132 (not ?v_140)) (?v_71 (< (+ (* (- 29) x5) (* 34 x23) (* 36 x5)) 22)) (?v_120 (<= (+ (- (* 6 x16) (* 21 x23)) (* 13 x8)) (- 40)))) (let ((?v_80 (not ?v_120)) (?v_104 (not ?v_19)) (?v_115 (< (- (- (* (- 9) x16) ?v_64) (* 3 x26)) (- 28))) (?v_85 (= (- (+ (* (- 41) x26) (* 16 x19)) 0) 43))) (let ((?v_67 (not ?v_85)) (?v_116 (not ?v_65)) (?v_119 (not ?v_71)) (?v_124 (< (+ (- (* 23 x26) 0) (* 21 x12)) (- 37)))) (let ((?v_98 (not ?v_124)) (?v_146 (< (+ (- (* 33 x17) 0) (* 40 x28)) (- 25)))) (let ((?v_106 (not ?v_146)) (?v_123 (not ?v_102)) (?v_141 (distinct (- (- (* (- 10) x13) (* 14 x14)) (* 3 x18)) 20))) (let ((?v_110 (not ?v_141)) (?v_136 (not ?v_13)) (?v_121 (not ?v_115)) (?v_159 (or ?v_73 ?v_19)) (?v_145 (not ?v_57)) (?v_157 (not ?v_17))) (and (and (and (and (and (and (and (and (and (and (and (and (and (and (and (and (and (and (and (and (and (and (and (and (and (and (and (and (and (and (and (and (and (and (and (and (and (and (and (and (and (and (and (and (and (and (and (and (and (and (and (and (and (and (and (and (and (and (and (and (and (and (and (and (and (and (and (and (and (and (and (and (and (and (and (and (and (and (and (and (and (and (and (and (and (and (and (and (and (and (and (and (and (and (and (and (and (and (and (and (and (and (and (and (and (and (and (and (and (and (and (and (and (and (and (and (and (and (and (and (and (and (and (and (and (and (and (and (and (and (and (and (and (and (and (and (and (and (and (and (and (and (and (and (and (and (and (and (and (and (and (and (and (and (and (and (and (and (and (and (and (and (and (and (and (and (and (and (and (and (and (and (and (and (and (and (and (and (and (and (and (and (and (and (and (and (and (and (and (and (and (and (and (and (and (and (and (and (and (and (and (and (and (and (and (and (and (and (and (and (and (and (and (and (and (and (and (and (and (and (and (and (and (and (and (and (and (and (and (and (and (and (and (and (and (and (and (and (and (and (and (and (and (and (and (and (and (and (and (and (and (and (and (and (and (and (and (and (and (and (and (and (and (and (and (and (and (and (and (and (and (and (and (and (and (and (and (and (and (and (and (and (and (and (and (and (and (and (and (and (and (and (and (and (and (and (and (and (and (and (and (and (and (and (and (and (and (and (and (and (and (and (and (and (and (and (and (and (and (and (and (and (and (and (and (and (and (and (and (and (and (and (and (and (and (and (and (and (and (and (and (and (and (and (and (and (and (and (and (and (and (and (and (and (and (and (and (and (and (or (or ?v_65 ?v_55) ?v_23) (or (or ?v_24 ?v_48) ?v_26)) (or (or ?v_118 ?v_2) ?v_5)) (or (or ?v_68 ?v_77) ?v_0)) (or (or P21 ?v_57) ?v_1)) (or (or ?v_0 P23) P11)) (or (or ?v_1 ?v_17) ?v_96)) (or (or ?v_22 ?v_122) ?v_12)) (or (or ?v_2 P3) P1)) (or (or ?v_39 ?v_70) P25)) (or (or ?v_13 ?v_102) ?v_10)) (or (or ?v_19 ?v_4) ?v_46)) (or (or ?v_5 ?v_15) ?v_7)) (or (or ?v_27 ?v_51) P12)) (or (or ?v_7 ?v_8) ?v_31)) (or (or ?v_95 P22) P2)) (or (or ?v_99 ?v_59) ?v_11)) (or (or ?v_50 ?v_25) ?v_81)) (or (or ?v_30 ?v_10) ?v_43)) (or (or ?v_97 ?v_12) ?v_16)) (or (or ?v_42 ?v_13) ?v_14)) (or (or ?v_56 ?v_18) ?v_15)) (or (or ?v_60 ?v_129) ?v_16)) (or (or ?v_17 ?v_29) (not ?v_49))) (or (or P6 P7) P14)) (or (or ?v_35 ?v_19) ?v_75)) (or (or ?v_69 ?v_76) P29)) (or (or ?v_54 P23) ?v_139)) (or (or ?v_86 ?v_28) ?v_23)) (or (or ?v_23 ?v_44) ?v_11)) (or (or ?v_25 P14) ?v_61)) (or (or ?v_26 ?v_36) ?v_28)) (or (or ?v_29 ?v_101) ?v_52)) (or (or ?v_92 ?v_74) ?v_14)) (or ?v_41 P2)) (or (or ?v_12 ?v_32) ?v_33)) (or (or ?v_108 P18) P27)) (or (or ?v_53 ?v_35) ?v_36)) (or (or ?v_37 ?v_38) ?v_135)) (or (or ?v_158 ?v_131) ?v_40)) (or ?v_41 ?v_87)) (or (or ?v_42 ?v_58) ?v_112)) (or (or ?v_19 P29) ?v_105)) (or (or ?v_5 ?v_150) ?v_66)) (or (or ?v_44 ?v_45) ?v_126)) (or (or ?v_47 P19) ?v_103)) (or (or ?v_49 ?v_50) ?v_51)) (or (or ?v_52 ?v_36) ?v_107)) (or (or ?v_26 ?v_54) ?v_55)) (or (or ?v_56 ?v_154) P12)) (or (or ?v_57 ?v_132) P3)) (or (or ?v_58 ?v_49) ?v_78)) (or (or P19 P8) ?v_71)) (or (or ?v_10 ?v_51) ?v_59)) (or (or ?v_60 ?v_109) ?v_28)) (or (or ?v_73 ?v_62) ?v_79)) (or (or P12 P28) P25)) (or (or ?v_93 ?v_14) ?v_24)) (or (or ?v_61 ?v_80) ?v_49)) (or (or ?v_32 ?v_91) ?v_46)) (or (or P23 ?v_104) P18)) (or (or ?v_90 ?v_18) ?v_115)) (or (or ?v_67 (not ?v_35)) ?v_28)) (or (or P19 ?v_116) P29)) (or (or ?v_66 ?v_30) ?v_45)) (or (or ?v_67 ?v_68) ?v_69)) (or (or ?v_94 ?v_45) ?v_137)) (or (or ?v_18 ?v_59) ?v_71)) (or (or P19 ?v_83) ?v_73)) (or (or ?v_16 ?v_134) ?v_74)) (or (or P18 ?v_61) ?v_119)) (or (or ?v_75 ?v_33) P21)) (or (or ?v_148 ?v_46) ?v_76)) (or (or ?v_23 ?v_98) ?v_77)) (or (or ?v_10 P11) P24)) (or (or ?v_78 ?v_147) ?v_49)) (or (or ?v_80 ?v_62) ?v_81)) (or (or ?v_106 ?v_82) P27)) (or (or ?v_17 ?v_83) ?v_8)) (or (or ?v_88 ?v_44) ?v_61)) (or (or ?v_85 ?v_86) P8)) (or (or ?v_33 ?v_87) ?v_44)) (or (or ?v_88 ?v_89) ?v_90)) (or (or ?v_78 ?v_91) ?v_114)) (or (or ?v_92 ?v_151) ?v_94)) (or (or ?v_25 ?v_142) ?v_42)) (or (or ?v_32 ?v_95) ?v_46)) (or (or P18 ?v_38) ?v_96)) (or (or ?v_111 ?v_7) ?v_97)) (or (or ?v_98 P20) ?v_99)) (or (or ?v_113 ?v_56) ?v_47)) (or (or P7 ?v_88) ?v_100)) (or (or ?v_27 ?v_101) P23)) (or (or ?v_133 ?v_30) ?v_89)) (or (or ?v_143 ?v_12) ?v_70)) (or (or ?v_123 ?v_128) ?v_103)) (or (or ?v_8 ?v_59) ?v_104)) (or (or ?v_105 ?v_110) ?v_106)) (or (or P6 ?v_107) ?v_31)) (or (or ?v_80 P4) ?v_76)) (or (or ?v_105 ?v_55) ?v_108)) (or (or ?v_32 ?v_109) ?v_13)) (or (or ?v_75 ?v_36) ?v_96)) (or (or ?v_130 ?v_110) ?v_69)) (or (or ?v_8 ?v_136) ?v_19)) (or (or ?v_106 ?v_40) ?v_111)) (or (or ?v_58 ?v_54) ?v_117)) (or (or ?v_52 P10) ?v_24)) (or (or ?v_112 ?v_113) ?v_114)) (or (or ?v_65 P19) ?v_57)) (or (or ?v_121 ?v_116) ?v_91)) (or (or P11 ?v_117) ?v_152)) (or (or ?v_53 P28) ?v_119)) (or (or P9 ?v_105) ?v_60)) (or ?v_159 ?v_120)) (or (or ?v_121 ?v_103) ?v_145)) (or (or ?v_122 ?v_16) ?v_123)) (or (or ?v_124 ?v_125) P7)) (or (or ?v_49 P21) ?v_60)) (or (or ?v_117 ?v_53) P10)) (or (or ?v_95 ?v_18) ?v_117)) (or (or P22 ?v_23) ?v_77)) (or (or ?v_10 ?v_43) ?v_24)) (or (or ?v_91 ?v_96) ?v_126)) (or (or ?v_107 ?v_117) ?v_74)) (or (or ?v_127 ?v_51) ?v_53)) (or (or ?v_11 P1) ?v_128)) (or (or ?v_69 ?v_39) ?v_76)) (or (or ?v_69 ?v_129) ?v_119)) (or (or ?v_57 P2) ?v_71)) (or (or ?v_89 ?v_45) ?v_130)) (or (or ?v_80 P16) ?v_115)) (or (or ?v_91 ?v_131) ?v_128)) (or (or P9 ?v_70) P0)) (or (or ?v_65 ?v_67) ?v_98)) (or (or ?v_10 ?v_45) ?v_100)) (or (or ?v_132 P2) P12)) (or (or ?v_133 ?v_122) ?v_114)) (or (or ?v_134 ?v_109) P2)) (or (or P22 ?v_96) ?v_52)) (or (or P26 ?v_35) ?v_14)) (or (or ?v_50 ?v_48) ?v_135)) (or (or P20 ?v_120) ?v_135)) (or (or P9 ?v_31) ?v_28)) (or (or ?v_114 ?v_0) ?v_19)) (or (or ?v_26 ?v_69) ?v_110)) (or (or ?v_31 ?v_33) ?v_24)) (or (or ?v_129 ?v_4) ?v_27)) (or (or ?v_67 ?v_126) ?v_16)) (or (or ?v_133 ?v_81) ?v_53)) (or (or ?v_42 ?v_124) ?v_47)) (or (or ?v_124 ?v_116) ?v_19)) (or (or ?v_128 P10) ?v_31)) (or (or P14 ?v_95) ?v_35)) (or (or ?v_136 ?v_83) ?v_78)) (or (or ?v_16 ?v_23) ?v_70)) (or (or ?v_122 ?v_96) ?v_91)) (or (or ?v_123 P1) ?v_80)) (or (or ?v_31 P12) ?v_121)) (or (or P2 P9) ?v_124)) (or (or ?v_49 ?v_137) ?v_65)) (or (or ?v_138 P22) ?v_25)) (or (or ?v_127 ?v_123) P28)) (or (or ?v_111 ?v_82) ?v_95)) (or (or ?v_61 ?v_22) ?v_112)) (or (or P14 ?v_28) P22)) (or (or ?v_13 ?v_45) ?v_96)) (or (or ?v_87 P19) ?v_139)) (or (or ?v_140 ?v_149) P28)) (or (or ?v_156 ?v_11) ?v_75)) (or (or ?v_117 P7) P17)) (or (or ?v_61 ?v_69) ?v_37)) (or (or ?v_74 ?v_112) P27)) (or (or ?v_26 ?v_141) ?v_43)) (or (or ?v_17 ?v_115) ?v_142)) (or (or ?v_18 P10) ?v_90)) (or (or ?v_100 ?v_111) ?v_143)) (or (or ?v_5 ?v_37) ?v_65)) (or (or ?v_81 ?v_99) ?v_144)) (or (or ?v_32 P18) ?v_66)) (or (or ?v_127 ?v_14) ?v_27)) (or (or ?v_106 ?v_99) ?v_130)) (or (or ?v_106 ?v_140) ?v_0)) (or (or ?v_145 ?v_74) ?v_146)) (or (or ?v_125 P22) P16)) (or (or ?v_103 ?v_87) ?v_29)) (or (or P20 ?v_144) ?v_96)) (or (or ?v_142 ?v_133) P28)) (or (or ?v_125 ?v_147) ?v_155)) (or (or ?v_81 ?v_148) ?v_71)) (or (or ?v_149 ?v_66) ?v_105)) (or (or ?v_74 ?v_71) P24)) (or (or ?v_150 ?v_82) ?v_46)) (or (or ?v_97 ?v_19) ?v_75)) (or (or ?v_53 ?v_106) P23)) (or (or ?v_135 ?v_49) ?v_101)) (or (or ?v_56 ?v_138) ?v_7)) (or (or P29 ?v_18) ?v_126)) (or (or ?v_151 ?v_114) ?v_105)) (or (or ?v_121 P16) ?v_128)) (or (or P1 ?v_149) ?v_121)) (or (or ?v_118 ?v_48) ?v_151)) (or ?v_160 P27)) (or (or ?v_18 ?v_69) ?v_31)) (or (or ?v_109 ?v_97) ?v_108)) (or (or ?v_97 ?v_1) ?v_77)) (or (or ?v_54 ?v_56) ?v_65)) (or (or ?v_57 ?v_88) ?v_118)) (or (or ?v_153 ?v_146) P27)) (or (or P27 P7) ?v_152)) (or (or ?v_4 P23) ?v_120)) (or (or ?v_98 ?v_50) P19)) (or (or ?v_119 ?v_137) ?v_103)) (or (or ?v_17 ?v_39) ?v_118)) (or (or ?v_92 ?v_152) ?v_0)) (or (or ?v_27 P23) ?v_4)) (or (or ?v_153 ?v_137) P20)) (or (or ?v_13 ?v_149) ?v_37)) (or (or ?v_49 ?v_114) ?v_44)) (or (or ?v_71 ?v_123) ?v_28)) (or (or ?v_60 ?v_143) ?v_85)) (or (or ?v_92 ?v_25) ?v_59)) (or (or P17 ?v_43) ?v_107)) (or (or ?v_85 ?v_87) ?v_154)) (or (or ?v_112 ?v_0) ?v_24)) (or (or P15 P18) ?v_116)) (or (or ?v_10 ?v_146) ?v_86)) (or (or ?v_24 ?v_32) ?v_126)) (or (or ?v_69 ?v_73) ?v_126)) (or (or ?v_83 ?v_83) ?v_40)) (or (or P15 ?v_123) ?v_1)) (or (or ?v_18 P1) ?v_17)) (or (or ?v_80 ?v_4) ?v_24)) (or (or ?v_137 ?v_122) ?v_57)) (or (or ?v_89 P28) ?v_138)) (or (or ?v_145 ?v_61) ?v_132)) (or (or ?v_134 ?v_95) ?v_36)) (or (or P14 ?v_22) P5)) (or (or ?v_90 ?v_155) ?v_141)) (or (or ?v_58 P5) ?v_156)) (or (or ?v_33 ?v_98) P10)) (or (or ?v_81 ?v_65) ?v_35)) (or (or ?v_18 ?v_91) ?v_107)) (or (or ?v_142 ?v_101) P5)) (or (or ?v_73 P11) ?v_157)) (or (or P11 ?v_83) ?v_71)) (or (or ?v_5 ?v_83) ?v_46)) (or (or ?v_1 ?v_131) ?v_30)) (or (or ?v_12 ?v_26) ?v_145)) (or (or P12 ?v_107) ?v_112)) (or (or ?v_53 ?v_110) P17)) (or (or ?v_12 ?v_127) ?v_11)) (or (or ?v_156 ?v_73) ?v_14)) (or (or ?v_136 ?v_19) P17)) (or (or P16 P17) ?v_114)) (or (or ?v_36 P4) ?v_82)) (or (or ?v_5 ?v_82) ?v_104)) (or (or ?v_122 ?v_25) ?v_42)) (or (or ?v_40 P20) ?v_112)) (or (or P0 ?v_120) ?v_144)) (or (or ?v_35 ?v_105) ?v_31)) (or (or ?v_22 ?v_129) ?v_33)) (or (or P10 ?v_154) ?v_141)) (or (or P3 ?v_59) ?v_134)) (or (or ?v_29 ?v_154) ?v_143)) (or (or ?v_10 P5) P27)) (or (or ?v_125 ?v_124) ?v_81)) (or (or P17 ?v_49) P5)) (or (or ?v_101 ?v_87) ?v_25)) (or (or P29 ?v_0) ?v_118)) (or (or ?v_101 ?v_48) ?v_16)) (or (or ?v_76 ?v_141) ?v_90)) (or (or ?v_157 ?v_23) ?v_78)) (or (or ?v_45 ?v_16) ?v_129)) (or (or ?v_155 ?v_66) ?v_45)) (or (or ?v_80 ?v_127) ?v_15)) (or (or ?v_76 ?v_37) ?v_137)) (or (or ?v_156 ?v_51) ?v_0)) (or (or ?v_89 ?v_113) ?v_143)) (or (or ?v_49 ?v_146) ?v_36)) (or (or ?v_39 ?v_77) P22)) (or (or ?v_43 ?v_49) ?v_12)) (or (or ?v_61 ?v_112) ?v_81)) (or (or ?v_149 ?v_28) ?v_96)) (or (or ?v_119 ?v_62) ?v_2)) (or (or ?v_48 ?v_151) ?v_129)) (or (or ?v_43 ?v_38) P23)) (or (or ?v_25 ?v_46) ?v_141)) (or (or ?v_148 ?v_74) ?v_80)) (or (or ?v_74 P25) ?v_38)) (or (or ?v_87 ?v_116) ?v_158)) (or ?v_159 ?v_98)) (or (or P15 P28) ?v_36)) (or (or ?v_71 ?v_143) ?v_130)) (or (or ?v_31 ?v_77) ?v_153)) (or (or ?v_29 P18) P23)) (or (or ?v_0 ?v_112) ?v_58)) (or (or P14 ?v_136) ?v_24)) (or (or ?v_141 ?v_93) ?v_126)) (or (or P1 ?v_29) ?v_31)) (or (or ?v_156 ?v_39) P18)) (or (or P21 ?v_92) ?v_153)) (or (or ?v_76 P16) ?v_18)) (or (or ?v_93 ?v_126) ?v_74)) (or (or ?v_55 ?v_88) ?v_73)) (or (or ?v_49 ?v_112) ?v_8)) (or (or ?v_144 ?v_12) ?v_78)) (or (or ?v_157 ?v_89) ?v_98)) (or (or ?v_51 P25) ?v_24)) (or (or ?v_36 ?v_12) ?v_35)) (or (or ?v_0 ?v_136) P15)) (or (or ?v_76 ?v_156) ?v_0)) (or (or ?v_114 ?v_151) ?v_134)) (or (or P23 P26) ?v_58)) (or (or P0 ?v_69) ?v_156)) (or (or ?v_124 ?v_38) ?v_50)) (or (or ?v_147 P29) ?v_107)) (or (or ?v_81 ?v_103) ?v_46)) (or (or ?v_131 ?v_121) ?v_136)) (or (or P14 ?v_10) ?v_27)) (or (or P10 P2) P14)) (or (or ?v_51 ?v_26) ?v_7)) (or (or ?v_55 ?v_0) ?v_108)) (or (or ?v_149 ?v_37) ?v_82)) (or (or ?v_80 ?v_19) ?v_0)) (or (or ?v_100 ?v_43) ?v_49)) (or ?v_160 ?v_75)) (or (or ?v_75 ?v_2) ?v_35)) (or (or ?v_144 P1) ?v_75)) (or (or ?v_67 ?v_2) ?v_82)) (or (or ?v_152 ?v_46) ?v_11)) (or (or ?v_55 ?v_23) ?v_8)) (or (or ?v_112 P29) ?v_127)) (or (or ?v_101 P25) ?v_5)) (or (or ?v_105 ?v_74) P26)) (or (or ?v_140 ?v_48) ?v_108)) (or (or P1 ?v_60) P8)) (or (or ?v_87 ?v_45) ?v_77)) (or (or ?v_156 ?v_88) ?v_105)) (or (or ?v_101 ?v_139) ?v_85)) (or (or ?v_36 P6) ?v_16)) (or (or ?v_12 ?v_10) ?v_125)) (or (or ?v_16 P4) ?v_123)) (or (or ?v_92 ?v_110) P14)) (or (or ?v_44 ?v_91) ?v_1)) (or (or ?v_30 ?v_70) ?v_76)) (or (or ?v_128 P17) ?v_60)) (or (or ?v_82 P8) ?v_129)) (or (or ?v_49 ?v_142) ?v_39)) (or (or ?v_18 ?v_0) ?v_100)) (or (or ?v_145 ?v_69) ?v_138)) (or (or ?v_156 ?v_113) ?v_18)) (or (or ?v_39 ?v_18) ?v_105)) (or (or ?v_85 P4) P28)) (or (or ?v_71 P12) ?v_22)) (or (or P13 ?v_75) P19)) (or (or P1 ?v_147) ?v_77)) (or (or ?v_111 ?v_115) ?v_54)) (or (or ?v_96 ?v_125) P28)) (or (or P25 ?v_115) ?v_142)))))))))))))))))))))))))))))
(check-sat)
(exit)
